9 
12 
12 
12 
7 
6 
6 
15 
4 
10 
8 
9 
6 
8 
12 
10 
6 
10 
8 
4 
8 
4 
7 
12 
5 
12 
5 
7 
5 
5 
6 
8 
9 
7 
9 
6 
9 
9 
5 
5 
4 
9 
8 
6 
6 
6 
12 
8 
12 
10 
8 
8 
11 
6 
8 
8 
9 
7 
8 
10 
11 
6 
8 
7 
9 
4 
9 
5 
9 
7 
8 
10 
10 
7 
8 
15 
10 
8 
4 
9 
5 
10 
7 
8 
7 
6 
8 
9 
9 
12 
10 
8 
4 
9 
6 
5 
6 
9 
6 
5 
